c is-unsat
p cnf 12 78
-10 4 -12 0
-10 5 -6 0
-8 4 10 0
1 4 9 0
-10 -2 -6 0
-6 8 -2 0
6 -1 -3 0
-7 -1 -5 0
-12 -2 4 0
-4 -2 -9 0
-2 -6 -9 0
3 -4 -2 0
-4 -1 2 0
3 1 -6 0
-12 -10 -11 0
-12 -11 -9 0
8 -7 -11 0
2 -11 -4 0
11 9 -2 0
-8 -2 4 0
-11 -5 -10 0
4 2 9 0
1 -10 7 0
6 -7 -4 0
-2 -11 -5 0
6 -2 -9 0
-6 10 -9 0
-9 -1 -11 0
10 -3 12 0
-4 -7 2 0
-1 -9 -7 0
-4 -5 -3 0
-8 -3 -6 0
-9 -11 -12 0
-8 -6 -12 0
2 -1 -5 0
9 -4 -3 0
-4 -2 1 0
-10 -4 8 0
4 -11 5 0
10 -7 4 0
7 -9 -10 0
-1 2 8 0
5 -8 -12 0
12 -3 6 0
2 -6 -9 0
10 -2 -8 0
-2 -1 -6 0
2 -8 -5 0
9 12 -5 0
5 -6 -1 0
11 2 6 0
12 -7 -8 0
-3 -8 -4 0
2 10 8 0
-2 -7 -6 0
-8 -2 -3 0
-7 -5 -1 0
-4 -9 -7 0
-6 -8 -1 0
6 -9 1 0
-5 -9 -6 0
-10 -1 6 0
3 -7 -2 0
-7 8 -3 0
-4 -12 -5 0
-3 -5 2 0
-1 -3 -5 0
-5 4 6 0
8 2 3 0
-7 1 -2 0
-3 -9 -8 0
-10 -3 11 0
-9 -11 12 0
5 -2 11 0
7 -8 -1 0
-10 -11 -8 0
-8 6 -5 0
